Version identifier: 22.1.0.0 | 2022-03-09 | 1a383f8ce
CPXPARAM_Threads                                 1
CPXPARAM_MIP_Strategy_VariableSelect             3
CPXPARAM_TimeLimit                               598.47132770999997
1 of 1 MIP starts provided solutions.
MIP start 'm1' defined initial solution with objective 189.0000.
Tried aggregator 1 time.
MIP Presolve eliminated 13 rows and 0 columns.
MIP Presolve modified 1 coefficients.
Reduced MIP has 1411 rows, 5000 columns, and 65846 nonzeros.
Reduced MIP has 5000 binaries, 0 generals, 0 SOSs, and 0 indicators.
Presolve time = 0.05 sec. (32.89 ticks)
Probing time = 0.01 sec. (5.87 ticks)
Tried aggregator 1 time.
Detecting symmetries...
Reduced MIP has 1411 rows, 5000 columns, and 65846 nonzeros.
Reduced MIP has 5000 binaries, 0 generals, 0 SOSs, and 0 indicators.
Presolve time = 0.05 sec. (37.31 ticks)
Probing time = 0.01 sec. (5.87 ticks)
Clique table members: 799.
MIP emphasis: balance optimality and feasibility.
MIP search method: dynamic search.
Parallel mode: none, using 1 thread.
Root relaxation solution time = 0.82 sec. (794.39 ticks)

        Nodes                                         Cuts/
   Node  Left     Objective  IInf  Best Integer    Best Bound    ItCnt     Gap

*     0+    0                          189.0000     5000.0000              --- 
      0     0      200.0000   818      189.0000      200.0000     3667    5.82%
      0     0      200.0000   233      189.0000   ZeroHalf: 3     4951    5.82%
*     0+    0                          191.0000      200.0000             4.71%
      0     0        cutoff            191.0000      200.0000     4951    4.71%
Detecting symmetries...
      0     2      200.0000   124      191.0000      200.0000     4951    4.71%
Elapsed time = 10.22 sec. (11751.75 ticks, tree = 0.01 MB, solutions = 2)
      1     3      200.0000   555      191.0000      200.0000    11457    4.71%
      2     4      200.0000   569      191.0000      200.0000    14778    4.71%
      3     5      200.0000   530      191.0000      200.0000    15143    4.71%
      4     6      200.0000   515      191.0000      200.0000    15346    4.71%
      5     7      200.0000   517      191.0000      200.0000    15392    4.71%
      6     8      200.0000   572      191.0000      200.0000    18843    4.71%
      7     9      200.0000   503      191.0000      200.0000    19445    4.71%
      9    11      200.0000   552      191.0000      200.0000    22549    4.71%
     10    12      200.0000   506      191.0000      200.0000    22711    4.71%
     12    14      200.0000   483      191.0000      200.0000    24280    4.71%
Elapsed time = 17.74 sec. (20382.42 ticks, tree = 0.12 MB, solutions = 2)
     16    18      200.0000   442      191.0000      200.0000    24700    4.71%
     20    22      200.0000   502      191.0000      200.0000    26994    4.71%
     22    24      200.0000   392      191.0000      200.0000    28920    4.71%
     24    26      200.0000   507      191.0000      200.0000    33168    4.71%
     28    30      200.0000   364      191.0000      200.0000    33322    4.71%
     29    31      200.0000   500      191.0000      200.0000    37198    4.71%
     30    32      200.0000   329      191.0000      200.0000    41731    4.71%
     31    33      200.0000   341      191.0000      200.0000    45187    4.71%
     32    34      200.0000   404      191.0000      200.0000    47642    4.71%
     33    35      200.0000   403      191.0000      200.0000    50656    4.71%
Elapsed time = 27.91 sec. (31905.58 ticks, tree = 0.30 MB, solutions = 2)
     34    36      200.0000   388      191.0000      200.0000    53697    4.71%
     36    38      200.0000   350      191.0000      200.0000    57873    4.71%
     39    41      200.0000   334      191.0000      200.0000    58576    4.71%
     41    43      200.0000   300      191.0000      200.0000    61439    4.71%
     44    46      200.0000   275      191.0000      200.0000    64968    4.71%
     47    49      200.0000   325      191.0000      200.0000    70629    4.71%
     49    51      200.0000   272      191.0000      200.0000    74374    4.71%
     50    52      200.0000   234      191.0000      200.0000    78454    4.71%
     51    53      200.0000   255      191.0000      200.0000    83387    4.71%
     52    54      200.0000   300      191.0000      200.0000    86722    4.71%
Elapsed time = 39.54 sec. (44988.12 ticks, tree = 0.50 MB, solutions = 2)
     53    55      200.0000   231      191.0000      200.0000    91255    4.71%
     55    57      199.9950   500      191.0000      200.0000   101780    4.71%
     56    58      200.0000   211      191.0000      200.0000   106165    4.71%
     58    60      199.9977   471      191.0000      200.0000   112647    4.71%
     60    62      200.0000   191      191.0000      200.0000   116076    4.71%
     62    64      200.0000   126      191.0000      200.0000   123902    4.71%
     64    66      200.0000   111      191.0000      200.0000   133720    4.71%
     65    67      199.9142   473      191.0000      200.0000   139624    4.71%
     66    68      199.9785   449      191.0000      200.0000   145555    4.71%
     70    72      199.9142   409      191.0000      200.0000   147728    4.71%
Elapsed time = 57.43 sec. (64424.73 ticks, tree = 0.60 MB, solutions = 2)
     72    74      199.0000   483      191.0000      200.0000   151494    4.71%
     76    78      199.0000   435      191.0000      200.0000   154968    4.71%
     81    83      199.9785   397      191.0000      200.0000   155137    4.71%
     86    88      198.9487   409      191.0000      200.0000   158478    4.71%
     89    91      199.9776   472      191.0000      200.0000   162762    4.71%
     93    95      199.9776   394      191.0000      200.0000   164127    4.71%
     95    97      198.9487   353      191.0000      200.0000   168376    4.71%
     99   101      199.9552   387      191.0000      200.0000   170425    4.71%
    102   104      199.9552   388      191.0000      200.0000   172560    4.71%
    105   107      199.0000   358      191.0000      200.0000   174740    4.71%
Elapsed time = 68.69 sec. (76587.86 ticks, tree = 0.84 MB, solutions = 2)
    109   109      199.9552   443      191.0000      200.0000   177342    4.71%
    113   113      199.9552   442      191.0000      200.0000   178789    4.71%
    117   117      199.9462   402      191.0000      200.0000   180570    4.71%
    120   120      199.9014   404      191.0000      200.0000   182858    4.71%
    124   124      199.8879   346      191.0000      200.0000   184163    4.71%
    127   127      199.8879   363      191.0000      200.0000   187185    4.71%
    130   130      199.8879   373      191.0000      200.0000   187812    4.71%
    133   133      199.8655   353      191.0000      200.0000   189369    4.71%
    136   136      199.8655   357      191.0000      200.0000   192128    4.71%
    140   140      199.8655   305      191.0000      200.0000   193110    4.71%
Elapsed time = 79.40 sec. (87985.64 ticks, tree = 1.28 MB, solutions = 2)
    145   145      199.0000   316      191.0000      200.0000   194734    4.71%
    150   150      199.8523   286      191.0000      200.0000   195816    4.71%
    154   154      199.0000   296      191.0000      200.0000   200044    4.71%
    159   159      199.8446   294      191.0000      200.0000   201028    4.71%
    164   164      199.0000   294      191.0000      200.0000   203047    4.71%
    169   169      199.0000   316      191.0000      200.0000   205055    4.71%
    173   173      199.8160   341      191.0000      200.0000   206749    4.71%
    179   179      199.0000   275      191.0000      200.0000   207689    4.71%
    185   185      199.0000   295      191.0000      200.0000   209408    4.71%
    188   188      199.8040   350      191.0000      200.0000   211646    4.71%
Elapsed time = 90.26 sec. (99776.22 ticks, tree = 1.90 MB, solutions = 2)
    193   193      199.0000   290      191.0000      200.0000   212153    4.71%
    198   198      198.9444   280      191.0000      200.0000   215105    4.71%
    200   200      199.7864   324      191.0000      200.0000   215998    4.71%
    203   203      199.7543   358      191.0000      200.0000   219371    4.71%
    206   206      199.0000   326      191.0000      200.0000   222975    4.71%
    210   210      199.7509   356      191.0000      200.0000   224786    4.71%
    216   216      199.0000   227      191.0000      200.0000   226293    4.71%
    222   222      199.0000   265      191.0000      200.0000   227525    4.71%
    227   227      198.9891   304      191.0000      200.0000   229731    4.71%
    232   232      198.8333   327      191.0000      200.0000   232244    4.71%
Elapsed time = 101.62 sec. (111533.22 ticks, tree = 2.47 MB, solutions = 2)
    237   237      199.0000   267      191.0000      200.0000   234463    4.71%
    240   240      199.7363   333      191.0000      200.0000   234482    4.71%
    243   243      199.7356   339      191.0000      200.0000   237863    4.71%
    247   247      198.7500   265      191.0000      200.0000   243027    4.71%
    254   253      198.7500   274      191.0000      200.0000   245289    4.71%
    258   257      199.7241   323      191.0000      200.0000   248068    4.71%
    260   259      199.7241   323      191.0000      200.0000   248080    4.71%
    263   262      199.4444   274      191.0000      200.0000   253110    4.71%
    269   268      198.6667   277      191.0000      200.0000   255856    4.71%
    273   272      199.7198   348      191.0000      200.0000   258136    4.71%
Elapsed time = 113.32 sec. (123748.38 ticks, tree = 3.00 MB, solutions = 2)
    280   279      198.0000   227      191.0000      200.0000   260651    4.71%
    284   283      198.6923   292      191.0000      200.0000   265048    4.71%
    288   287      199.7176   327      191.0000      200.0000   267323    4.71%
    292   290      199.7108   321      191.0000      200.0000   269682    4.71%
    296   293      199.7085   356      191.0000      200.0000   272815    4.71%
    300   297      198.4545   238      191.0000      200.0000   274894    4.71%
    304   301      199.7039   333      191.0000      200.0000   277242    4.71%
    308   305      199.0000   325      191.0000      200.0000   279578    4.71%
    311   306    infeasible            191.0000      200.0000   284930    4.71%
    320   315      199.6933   332      191.0000      200.0000   295287    4.71%
Elapsed time = 129.90 sec. (140475.53 ticks, tree = 3.56 MB, solutions = 2)
    336   330      198.0000   205      191.0000      200.0000   309959    4.71%
    343   337      199.2500    83      191.0000      200.0000   325643    4.71%
    349   339      199.0000   144      191.0000      200.0000   347749    4.71%
    357   343      199.0000   132      191.0000      200.0000   365513    4.71%
    365   349      198.0000    77      191.0000      200.0000   381829    4.71%
    378   358      198.0000    84      191.0000      200.0000   396417    4.71%
    396   364      200.0000   222      191.0000      200.0000   411596    4.71%
    401   369      199.9785   506      191.0000      200.0000   431176    4.71%
    406   374      200.0000   140      191.0000      200.0000   445898    4.71%
    410   378      200.0000   120      191.0000      200.0000   463742    4.71%
Elapsed time = 170.73 sec. (182842.29 ticks, tree = 4.38 MB, solutions = 2)
    415   383      198.9487   374      191.0000      200.0000   481845    4.71%
    429   397      199.0000   217      191.0000      200.0000   490671    4.71%
    443   411      199.9482   265      191.0000      200.0000   499445    4.71%
    453   421      199.8964   412      191.0000      200.0000   510338    4.71%
    468   436      199.8964   353      191.0000      200.0000   516471    4.71%
    481   449      199.0000   433      191.0000      200.0000   526702    4.71%
    496   464      199.8446   378      191.0000      200.0000   533053    4.71%
    509   477      199.8705   435      191.0000      200.0000   540966    4.71%
*   510+  476                          194.0000      200.0000             3.09%
*   510+  472                          195.0000      200.0000             2.56%
*   511+  473                          196.0000      200.0000             2.04%
*   511+  462                          197.0000      200.0000             1.52%
    512   465      199.9785   292      197.0000      200.0000   550928    1.52%
    520   473      199.9777   436      197.0000      200.0000   561525    1.52%
Elapsed time = 217.13 sec. (230332.29 ticks, tree = 5.18 MB, solutions = 6)
    544   497      199.9741   365      197.0000      200.0000   562454    1.52%
    567   520      199.9727   362      197.0000      200.0000   562727    1.52%
    593   545      199.9607   406      197.0000      200.0000   565647    1.52%
    615   567      199.9602   383      197.0000      200.0000   565815    1.52%

Performing restart 1

Repeating presolve.
Tried aggregator 1 time.
Reduced MIP has 1411 rows, 5000 columns, and 65846 nonzeros.
Reduced MIP has 5000 binaries, 0 generals, 0 SOSs, and 0 indicators.
Presolve time = 0.04 sec. (31.91 ticks)
Tried aggregator 1 time.
Reduced MIP has 1411 rows, 5000 columns, and 65846 nonzeros.
Reduced MIP has 5000 binaries, 0 generals, 0 SOSs, and 0 indicators.
Presolve time = 0.04 sec. (38.26 ticks)
Represolve time = 0.28 sec. (228.71 ticks)
    621     0      200.0000   709      197.0000       Cuts: 4   572557    1.52%
    621     0      200.0000   523      197.0000      Cuts: 24   574845    1.52%
    621     2      200.0000   108      197.0000      200.0000   574845    1.52%
    625     6      200.0000   288      197.0000      200.0000   586746    1.52%
    629    10      200.0000   424      197.0000      200.0000   605957    1.52%
    632    13      200.0000   422      197.0000      200.0000   617434    1.52%
    637    18      200.0000   566      197.0000      200.0000   630959    1.52%
    642    23      200.0000   522      197.0000      200.0000   640999    1.52%
Elapsed time = 269.27 sec. (287061.34 ticks, tree = 0.07 MB, solutions = 6)
    646    27      200.0000   435      197.0000      200.0000   656787    1.52%
    650    31      200.0000   343      197.0000      200.0000   668528    1.52%
    659    40      200.0000   228      197.0000      200.0000   678038    1.52%
    667    48      200.0000   183      197.0000      200.0000   687415    1.52%
    674    55      200.0000   227      197.0000      200.0000   700531    1.52%
    684    64      200.0000   160      197.0000      200.0000   712232    1.52%
    695    75      200.0000   141      197.0000      200.0000   723379    1.52%
    705    85      200.0000   223      197.0000      200.0000   734513    1.52%
    715    95      200.0000   179      197.0000      200.0000   749113    1.52%
    721   101      199.8827   241      197.0000      200.0000   758227    1.52%
Elapsed time = 323.65 sec. (340132.32 ticks, tree = 0.99 MB, solutions = 6)
    731   111      200.0000   158      197.0000      200.0000   775120    1.52%
    742   122      200.0000   160      197.0000      200.0000   791079    1.52%
    751   131      200.0000   191      197.0000      200.0000   810915    1.52%
    769   149      198.7778   263      197.0000      200.0000   823753    1.52%
    787   167      199.7848   274      197.0000      200.0000   829928    1.52%
    806   185      198.7437   210      197.0000      200.0000   836042    1.52%
    826   203      198.8776   244      197.0000      200.0000   844287    1.52%
    842   218      198.3333   157      197.0000      200.0000   858112    1.52%
    859   234      199.6786   254      197.0000      200.0000   868482    1.52%
    876   250      198.7778   216      197.0000      200.0000   880811    1.52%
Elapsed time = 364.26 sec. (379883.53 ticks, tree = 2.76 MB, solutions = 6)
    889   263      199.0000   120      197.0000      200.0000   892177    1.52%
    904   275      198.9662   103      197.0000      200.0000   906447    1.52%
    928   295      198.8000   125      197.0000      200.0000   915398    1.52%
    941   301      199.8938   273      197.0000      200.0000   930516    1.52%
    954   313      200.0000   199      197.0000      200.0000   945028    1.52%
    964   319      199.9032   295      197.0000      200.0000   965155    1.52%
    982   335      199.6182   212      197.0000      200.0000   977537    1.52%
   1014   353      199.4000   175      197.0000      200.0000   988413    1.52%
   1038   373      198.2750   217      197.0000      200.0000  1000030    1.52%
   1071   384      198.3676   227      197.0000      200.0000  1007978    1.52%
Elapsed time = 406.20 sec. (420055.24 ticks, tree = 4.42 MB, solutions = 6)
   1090   391      200.0000   235      197.0000      200.0000  1016185    1.52%
   1105   406      199.8803   242      197.0000      200.0000  1026725    1.52%
   1134   435      199.8325   296      197.0000      200.0000  1027300    1.52%
   1157   458      199.7213   249      197.0000      200.0000  1029661    1.52%
   1181   482      199.5930   227      197.0000      200.0000  1032884    1.52%
   1207   508      199.5424   255      197.0000      200.0000  1036044    1.52%
   1224   525      200.0000   248      197.0000      200.0000  1045179    1.52%
   1241   541      199.6770   216      197.0000      200.0000  1054616    1.52%
   1272   571      199.6148   221      197.0000      200.0000  1055484    1.52%
   1297   596      199.5472   231      197.0000      200.0000  1057460    1.52%
Elapsed time = 445.32 sec. (459305.60 ticks, tree = 7.19 MB, solutions = 6)
   1321   620      199.4000   237      197.0000      200.0000  1061258    1.52%
   1346   645      199.3077   201      197.0000      200.0000  1064805    1.52%
   1365   659      200.0000   193      197.0000      200.0000  1076601    1.52%
   1378   671      199.9131   290      197.0000      200.0000  1090135    1.52%
   1400   693      199.0000   241      197.0000      200.0000  1097408    1.52%
   1420   713      199.6176   192      197.0000      200.0000  1105064    1.52%
   1445   738      199.0000   242      197.0000      200.0000  1114346    1.52%
   1468   761      199.7647   188      197.0000      200.0000  1122938    1.52%
   1485   778      199.0000   176      197.0000      200.0000  1135636    1.52%
   1507   799      199.6392   192      197.0000      200.0000  1144089    1.52%
Elapsed time = 485.37 sec. (499078.51 ticks, tree = 9.85 MB, solutions = 6)
   1522   812      198.6667   137      197.0000      200.0000  1159904    1.52%
   1543   822      198.0000   115      197.0000      200.0000  1177367    1.52%
   1574   831      198.0000    43      197.0000      200.0000  1195966    1.52%
   1600   853      199.7066   192      197.0000      200.0000  1206267    1.52%
   1632   885      199.6316   195      197.0000      200.0000  1207259    1.52%
   1656   909      199.1566   225      197.0000      200.0000  1213030    1.52%
   1680   928      198.9124   243      197.0000      200.0000  1221835    1.52%
   1710   952      198.6237   245      197.0000      200.0000  1225840    1.52%
   1740   974      198.5614   252      197.0000      200.0000  1229102    1.52%
   1769   990      198.4400   128      197.0000      200.0000  1236755    1.52%
Elapsed time = 524.94 sec. (537928.35 ticks, tree = 12.36 MB, solutions = 6)
   1793  1007      199.5833   293      197.0000      200.0000  1244384    1.52%
   1821  1035      199.4118   188      197.0000      200.0000  1248537    1.52%
   1846  1047      199.8065   245      197.0000      200.0000  1259382    1.52%
   1875  1076      199.6423   230      197.0000      200.0000  1262022    1.52%
   1906  1107      199.5789   219      197.0000      200.0000  1263275    1.52%
Starting limited solution polishing.
   1933  1134      199.5725   223      197.0000      200.0000  1266118    1.52%
   1955  1152      198.0000   145      197.0000      200.0000  1276384    1.52%
   1987  1165        cutoff            197.0000      200.0000  1290843    1.52%
   2014  1188      199.8222   246      197.0000      200.0000  1297398    1.52%
   2043  1217      199.6842   250      197.0000      200.0000  1299225    1.52%
Elapsed time = 563.94 sec. (577653.33 ticks, tree = 15.35 MB, solutions = 6)
   2074  1248      199.6436   251      197.0000      200.0000  1300249    1.52%
   2098  1272      199.5443   276      197.0000      200.0000  1304678    1.52%
   2114  1286      199.0598   250      197.0000      200.0000  1316964    1.52%
   2141  1310      198.6558   237      197.0000      200.0000  1321435    1.52%
   2185  1327      198.1818   187      197.0000      200.0000  1324190    1.52%
   2203  1342      199.7826   231      197.0000      200.0000  1337139    1.52%
   2224  1361      199.7000   266      197.0000      200.0000  1344848    1.52%
   2244  1379      199.6667   258      197.0000      200.0000  1355099    1.52%

Clique cuts applied:  3
Zero-half cuts applied:  7

Root node processing (before b&c):
  Real time             =   10.17 sec. (11696.19 ticks)
Sequential b&c:
  Real time             =  588.30 sec. (600976.70 ticks)
                          ------------
Total (root+branch&cut) =  598.47 sec. (612672.89 ticks)
Primal:	197
Dual:	200
Status:	Feasible
Time:	598.45
Sequence:
	21
	9
	14
	7
	21
	1
	19
	12
	14
	7
	23
	0
	18
	12
	14
	7
	23
	0
	18
	3
	18
	7
	4
	18
	7
	5
	18
	8
	14
	10
	7
	14
	13
	7
	16
	10
	7
	14
	11
	7
	16
	10
	18
	2
	21
	7
	16
	10
	8
	14
	10
	16
	7
	18
	3
	18
	7
	6
	18
	7
	16
	10
	15
	7
	18
	3
	14
	9
	18
	5
	18
	7
	17
	7
	18
	3
	7
	20
	5
	18
	7
	3
	20
	7
	14
	10
	14
	7
	12
	15
	7
	18
	3
	7
	20
	5
	18
	7
	3
	8
	18
	5
	18
	7
	3
	9
	18
	5
	18
	7
	15
	10
	7
	14
	12
	18
	1
	21
	8
	14
	10
	7
	16
	10
	9
	14
	7
	21
	1
	19
	12
	14
	7
	21
	2
	18
	12
	14
	7
	21
	1
	20
	10
	14
	7
	23
	1
	19
	10
	14
	7
	21
	2
	18
	10
	14
	7
	22
	1
	18
	10
	16
	8
	21
	1
	18
	12
	15
	7
	10
	16
	7
	19
	1
	21
	7
	14
	9
	12
	14
	7
	21
	2
	18
	12
	14
	7
	13
	14
	7
	21
	1
	19
	10
	16
	7
	12
